language ESSENCE' 1.0

letting n be 4
letting lattice_FunctionND be
        [[0, 1, 1, 0; int(0..3)], [1, 0, 0, 1; int(0..3)], [1, 0, 0, 1; int(0..3)], [0, 1, 1, 0; int(0..3)]; int(0..3)]
$ Visualisation for lattice_FunctionND
$ 0 1 1 0
$ 1 0 0 1
$ 1 0 0 1
$ 0 1 1 0

letting fin1 be 16
